DATASET = "thpack3";
INSTANCE = "047";

WIDTH = 233;
HEIGHT = 220;
LENGTH = 587;

NO_OF_SHAPES = 8;
size = [|
  118,54,42 |
  112,95,20 |
  118,38,37 |
  76,38,38 |
  100,56,34 |
  100,73,50 |
  75,58,36 |
  76,51,41 |
|];

verticality = [|
  0,1,1 |
  0,0,1 |
  0,1,1 |
  0,1,1 |
  0,1,1 |
  0,1,1 |
  0,1,1 |
  1,1,1 |
|];

box_count = [
  13,
  21,
  20,
  19,
  19,
  20,
  19,
  17,
];
